linear programming/gurobi/sddp/iter2_sub_1^1.sol
# Objective value = -1.3833333333333334e+02
q_2^1 0
I_1^1 1.8333333333333332e+01
B_1^1 0
theta_3^1 -100
